p tw 47 516
0 1
0 2
0 3
0 4
0 5
0 6
0 7
0 8
0 12
0 18
0 25
0 27
0 29
0 30
0 31
0 14
0 21
0 22
0 24
0 26
0 32
0 33
0 34
0 13
0 16
0 17
0 19
0 35
0 36
0 28
0 37
0 38
0 9
0 11
0 44
0 45
1 2
1 3
1 4
1 5
1 6
1 7
1 8
1 12
1 23
1 24
1 25
1 26
1 27
1 28
1 13
1 16
1 17
1 19
1 32
1 35
1 36
1 15
1 20
1 37
1 39
2 3
2 4
2 5
2 6
2 7
2 8
3 4
3 5
3 6
3 7
3 8
3 12
3 23
3 24
3 25
3 26
3 27
3 28
3 18
3 29
3 30
3 31
3 17
3 22
3 32
3 35
3 37
3 38
4 5
4 6
4 7
4 8
4 9
4 11
4 12
4 19
4 33
4 38
4 44
4 45
4 13
4 16
4 25
4 30
4 32
4 34
4 37
4 46
5 6
5 7
5 8
5 12
5 18
5 19
5 20
5 21
5 22
5 23
5 17
5 26
5 27
5 28
5 32
5 35
5 37
5 38
5 9
5 11
5 33
5 44
5 45
6 7
6 8
6 12
6 18
6 25
6 27
6 29
6 30
6 31
6 14
6 21
6 22
6 24
6 26
6 32
6 33
6 34
6 13
6 16
6 17
6 19
6 35
6 36
6 10
6 37
6 39
6 42
6 43
7 8
8 9
8 10
8 11
8 12
8 13
8 14
8 15
8 16
8 17
8 18
8 19
8 20
8 21
8 22
8 23
8 24
8 25
8 26
8 27
8 28
8 35
8 37
8 39
8 31
8 36
8 42
8 43
9 10
9 11
9 12
9 13
9 14
9 15
9 16
9 17
9 19
9 33
9 38
9 44
9 45
10 11
10 12
10 13
10 14
10 15
10 16
10 17
10 19
10 24
10 25
10 27
10 28
10 30
10 40
10 41
10 31
10 36
10 37
10 39
10 42
10 43
10 22
10 32
10 33
10 38
11 12
11 13
11 14
11 15
11 16
11 17
11 19
11 33
11 38
11 44
11 45
12 13
12 14
12 15
12 16
12 17
12 18
12 19
12 20
12 21
12 22
12 23
12 24
12 25
12 26
12 27
12 28
12 29
12 30
12 31
12 33
12 38
12 44
12 45
13 14
13 15
13 16
13 17
13 19
13 24
13 32
13 35
13 36
13 25
13 30
13 33
13 34
13 37
13 38
13 46
14 15
14 16
14 17
14 18
14 21
14 22
14 24
14 26
14 32
14 33
14 34
14 27
14 37
14 38
14 43
15 16
15 17
15 19
15 20
15 23
15 27
15 35
15 37
15 39
15 24
15 25
15 28
15 30
15 40
15 41
16 17
16 19
16 24
16 32
16 35
16 36
16 22
16 27
16 33
16 37
16 38
16 43
16 25
16 30
16 34
16 46
17 19
17 24
17 32
17 35
17 36
17 22
17 26
17 27
17 28
17 37
17 38
17 31
17 39
17 42
17 43
18 19
18 20
18 21
18 22
18 23
18 25
18 27
18 29
18 30
18 31
18 24
18 26
18 32
18 33
18 34
19 20
19 21
19 22
19 23
19 24
19 32
19 35
19 36
19 27
19 37
19 39
19 25
19 28
19 30
19 40
19 41
19 33
19 38
19 44
19 45
20 21
20 22
20 23
20 27
20 35
20 37
20 39
21 22
21 23
21 24
21 26
21 32
21 33
21 34
22 23
22 24
22 26
22 32
22 33
22 34
22 27
22 28
22 35
22 37
22 38
22 43
23 24
23 25
23 26
23 27
23 28
23 35
23 37
23 39
24 25
24 26
24 27
24 28
24 32
24 33
24 34
24 35
24 36
24 30
24 40
24 41
25 26
25 27
25 28
25 29
25 30
25 31
25 40
25 41
25 32
25 33
25 34
25 37
25 38
25 46
26 27
26 28
26 32
26 33
26 34
26 35
26 37
26 38
27 28
27 29
27 30
27 31
27 32
27 35
27 37
27 38
27 39
27 40
27 41
27 33
27 43
28 32
28 35
28 37
28 38
28 30
28 40
28 41
29 30
29 31
30 31
30 40
30 41
30 32
30 33
30 34
30 37
30 38
30 46
31 36
31 37
31 39
31 42
31 43
32 33
32 34
32 35
32 36
32 37
32 38
32 43
32 46
33 34
33 38
33 44
33 45
33 37
33 43
33 46
34 37
34 38
34 46
35 36
35 37
35 38
35 39
36 37
36 39
36 42
36 43
37 38
37 39
37 42
37 43
37 46
38 44
38 45
38 43
38 46
39 42
39 43
40 41
42 43
44 45
